DATASET = "thpack3";
INSTANCE = "086";

WIDTH = 233;
HEIGHT = 220;
LENGTH = 587;

NO_OF_SHAPES = 8;
size = [|
  87,33,28 |
  97,70,57 |
  71,57,38 |
  63,53,47 |
  77,56,37 |
  102,67,47 |
  72,31,29 |
  84,58,38 |
|];

verticality = [|
  0,1,1 |
  1,1,1 |
  1,1,1 |
  1,1,1 |
  0,1,1 |
  0,1,1 |
  0,1,1 |
  0,1,1 |
|];

box_count = [
  20,
  22,
  20,
  17,
  18,
  21,
  20,
  17,
];
